(declare-fun e () String)
(declare-fun c () String)
(declare-fun g () String)
(declare-fun b () String)
(declare-fun d () String)
(declare-fun f () String)
(declare-fun a () String)
(declare-fun h () String)
(assert (= (str.++ "c" f "b") (str.++ h "b")))
(assert (= (str.++ e g f "gh") (str.++ d "bha" d c)))
(assert (= (str.++ "ae" b "d") (str.++ "fea" a b "b")))

(check-sat)
